c File: flat50_3_0.col
c
c SOURCE: Joseph Culberson (joe@cs.ualberta.ca)
c DESCRIPTION: Quasi-random coloring problem
c              generated with flatness = 0
c                             probability = 0.139
c                             known coloring = 3
c                             random seed = 1596
c              Creation Date:  Tue Jun  9 12:13:11 1998
c Maximum degree = 8 Minimum degree = 1
c p edge 50 115
c cnf created by edge2cnf
p cnf 150 545
-1 -2 0
-1 -3 0
-2 -3 0
1 2 3 0
-4 -5 0
-4 -6 0
-5 -6 0
4 5 6 0
-7 -8 0
-7 -9 0
-8 -9 0
7 8 9 0
-10 -11 0
-10 -12 0
-11 -12 0
10 11 12 0
-13 -14 0
-13 -15 0
-14 -15 0
13 14 15 0
-16 -17 0
-16 -18 0
-17 -18 0
16 17 18 0
-19 -20 0
-19 -21 0
-20 -21 0
19 20 21 0
-22 -23 0
-22 -24 0
-23 -24 0
22 23 24 0
-25 -26 0
-25 -27 0
-26 -27 0
25 26 27 0
-28 -29 0
-28 -30 0
-29 -30 0
28 29 30 0
-31 -32 0
-31 -33 0
-32 -33 0
31 32 33 0
-34 -35 0
-34 -36 0
-35 -36 0
34 35 36 0
-37 -38 0
-37 -39 0
-38 -39 0
37 38 39 0
-40 -41 0
-40 -42 0
-41 -42 0
40 41 42 0
-43 -44 0
-43 -45 0
-44 -45 0
43 44 45 0
-46 -47 0
-46 -48 0
-47 -48 0
46 47 48 0
-49 -50 0
-49 -51 0
-50 -51 0
49 50 51 0
-52 -53 0
-52 -54 0
-53 -54 0
52 53 54 0
-55 -56 0
-55 -57 0
-56 -57 0
55 56 57 0
-58 -59 0
-58 -60 0
-59 -60 0
58 59 60 0
-61 -62 0
-61 -63 0
-62 -63 0
61 62 63 0
-64 -65 0
-64 -66 0
-65 -66 0
64 65 66 0
-67 -68 0
-67 -69 0
-68 -69 0
67 68 69 0
-70 -71 0
-70 -72 0
-71 -72 0
70 71 72 0
-73 -74 0
-73 -75 0
-74 -75 0
73 74 75 0
-76 -77 0
-76 -78 0
-77 -78 0
76 77 78 0
-79 -80 0
-79 -81 0
-80 -81 0
79 80 81 0
-82 -83 0
-82 -84 0
-83 -84 0
82 83 84 0
-85 -86 0
-85 -87 0
-86 -87 0
85 86 87 0
-88 -89 0
-88 -90 0
-89 -90 0
88 89 90 0
-91 -92 0
-91 -93 0
-92 -93 0
91 92 93 0
-94 -95 0
-94 -96 0
-95 -96 0
94 95 96 0
-97 -98 0
-97 -99 0
-98 -99 0
97 98 99 0
-100 -101 0
-100 -102 0
-101 -102 0
100 101 102 0
-103 -104 0
-103 -105 0
-104 -105 0
103 104 105 0
-106 -107 0
-106 -108 0
-107 -108 0
106 107 108 0
-109 -110 0
-109 -111 0
-110 -111 0
109 110 111 0
-112 -113 0
-112 -114 0
-113 -114 0
112 113 114 0
-115 -116 0
-115 -117 0
-116 -117 0
115 116 117 0
-118 -119 0
-118 -120 0
-119 -120 0
118 119 120 0
-121 -122 0
-121 -123 0
-122 -123 0
121 122 123 0
-124 -125 0
-124 -126 0
-125 -126 0
124 125 126 0
-127 -128 0
-127 -129 0
-128 -129 0
127 128 129 0
-130 -131 0
-130 -132 0
-131 -132 0
130 131 132 0
-133 -134 0
-133 -135 0
-134 -135 0
133 134 135 0
-136 -137 0
-136 -138 0
-137 -138 0
136 137 138 0
-139 -140 0
-139 -141 0
-140 -141 0
139 140 141 0
-142 -143 0
-142 -144 0
-143 -144 0
142 143 144 0
-145 -146 0
-145 -147 0
-146 -147 0
145 146 147 0
-148 -149 0
-148 -150 0
-149 -150 0
148 149 150 0
-70 -1 0
-71 -2 0
-72 -3 0
-91 -1 0
-92 -2 0
-93 -3 0
-118 -1 0
-119 -2 0
-120 -3 0
-112 -4 0
-113 -5 0
-114 -6 0
-115 -4 0
-116 -5 0
-117 -6 0
-61 -7 0
-62 -8 0
-63 -9 0
-67 -7 0
-68 -8 0
-69 -9 0
-106 -7 0
-107 -8 0
-108 -9 0
-115 -7 0
-116 -8 0
-117 -9 0
-127 -7 0
-128 -8 0
-129 -9 0
-148 -7 0
-149 -8 0
-150 -9 0
-67 -10 0
-68 -11 0
-69 -12 0
-79 -10 0
-80 -11 0
-81 -12 0
-91 -10 0
-92 -11 0
-93 -12 0
-97 -10 0
-98 -11 0
-99 -12 0
-142 -10 0
-143 -11 0
-144 -12 0
-115 -13 0
-116 -14 0
-117 -15 0
-55 -16 0
-56 -17 0
-57 -18 0
-91 -16 0
-92 -17 0
-93 -18 0
-97 -16 0
-98 -17 0
-99 -18 0
-100 -16 0
-101 -17 0
-102 -18 0
-145 -16 0
-146 -17 0
-147 -18 0
-58 -19 0
-59 -20 0
-60 -21 0
-91 -19 0
-92 -20 0
-93 -21 0
-94 -19 0
-95 -20 0
-96 -21 0
-106 -19 0
-107 -20 0
-108 -21 0
-142 -19 0
-143 -20 0
-144 -21 0
-52 -22 0
-53 -23 0
-54 -24 0
-97 -22 0
-98 -23 0
-99 -24 0
-100 -22 0
-101 -23 0
-102 -24 0
-133 -22 0
-134 -23 0
-135 -24 0
-139 -22 0
-140 -23 0
-141 -24 0
-79 -25 0
-80 -26 0
-81 -27 0
-85 -25 0
-86 -26 0
-87 -27 0
-88 -25 0
-89 -26 0
-90 -27 0
-100 -25 0
-101 -26 0
-102 -27 0
-103 -25 0
-104 -26 0
-105 -27 0
-145 -25 0
-146 -26 0
-147 -27 0
-55 -28 0
-56 -29 0
-57 -30 0
-61 -28 0
-62 -29 0
-63 -30 0
-100 -28 0
-101 -29 0
-102 -30 0
-103 -28 0
-104 -29 0
-105 -30 0
-118 -28 0
-119 -29 0
-120 -30 0
-61 -31 0
-62 -32 0
-63 -33 0
-64 -31 0
-65 -32 0
-66 -33 0
-76 -31 0
-77 -32 0
-78 -33 0
-112 -31 0
-113 -32 0
-114 -33 0
-145 -31 0
-146 -32 0
-147 -33 0
-64 -34 0
-65 -35 0
-66 -36 0
-82 -34 0
-83 -35 0
-84 -36 0
-85 -34 0
-86 -35 0
-87 -36 0
-103 -34 0
-104 -35 0
-105 -36 0
-121 -34 0
-122 -35 0
-123 -36 0
-79 -37 0
-80 -38 0
-81 -39 0
-106 -37 0
-107 -38 0
-108 -39 0
-118 -37 0
-119 -38 0
-120 -39 0
-136 -37 0
-137 -38 0
-138 -39 0
-139 -37 0
-140 -38 0
-141 -39 0
-55 -40 0
-56 -41 0
-57 -42 0
-82 -40 0
-83 -41 0
-84 -42 0
-112 -40 0
-113 -41 0
-114 -42 0
-118 -40 0
-119 -41 0
-120 -42 0
-124 -40 0
-125 -41 0
-126 -42 0
-73 -43 0
-74 -44 0
-75 -45 0
-79 -43 0
-80 -44 0
-81 -45 0
-109 -43 0
-110 -44 0
-111 -45 0
-127 -43 0
-128 -44 0
-129 -45 0
-130 -43 0
-131 -44 0
-132 -45 0
-145 -43 0
-146 -44 0
-147 -45 0
-94 -46 0
-95 -47 0
-96 -48 0
-97 -46 0
-98 -47 0
-99 -48 0
-103 -46 0
-104 -47 0
-105 -48 0
-115 -46 0
-116 -47 0
-117 -48 0
-124 -46 0
-125 -47 0
-126 -48 0
-148 -46 0
-149 -47 0
-150 -48 0
-58 -49 0
-59 -50 0
-60 -51 0
-64 -49 0
-65 -50 0
-66 -51 0
-106 -49 0
-107 -50 0
-108 -51 0
-133 -52 0
-134 -53 0
-135 -54 0
-103 -55 0
-104 -56 0
-105 -57 0
-121 -55 0
-122 -56 0
-123 -57 0
-142 -58 0
-143 -59 0
-144 -60 0
-109 -61 0
-110 -62 0
-111 -63 0
-112 -61 0
-113 -62 0
-114 -63 0
-112 -64 0
-113 -65 0
-114 -66 0
-103 -67 0
-104 -68 0
-105 -69 0
-106 -67 0
-107 -68 0
-108 -69 0
-124 -67 0
-125 -68 0
-126 -69 0
-145 -67 0
-146 -68 0
-147 -69 0
-112 -70 0
-113 -71 0
-114 -72 0
-136 -70 0
-137 -71 0
-138 -72 0
-145 -70 0
-146 -71 0
-147 -72 0
-124 -73 0
-125 -74 0
-126 -75 0
-133 -73 0
-134 -74 0
-135 -75 0
-139 -73 0
-140 -74 0
-141 -75 0
-106 -76 0
-107 -77 0
-108 -78 0
-148 -76 0
-149 -77 0
-150 -78 0
-124 -79 0
-125 -80 0
-126 -81 0
-127 -79 0
-128 -80 0
-129 -81 0
-130 -79 0
-131 -80 0
-132 -81 0
-142 -79 0
-143 -80 0
-144 -81 0
-121 -82 0
-122 -83 0
-123 -84 0
-139 -82 0
-140 -83 0
-141 -84 0
-112 -85 0
-113 -86 0
-114 -87 0
-133 -85 0
-134 -86 0
-135 -87 0
-103 -88 0
-104 -89 0
-105 -90 0
-118 -88 0
-119 -89 0
-120 -90 0
-136 -88 0
-137 -89 0
-138 -90 0
-145 -88 0
-146 -89 0
-147 -90 0
-127 -94 0
-128 -95 0
-129 -96 0
-136 -94 0
-137 -95 0
-138 -96 0
-124 -97 0
-125 -98 0
-126 -99 0
-133 -97 0
-134 -98 0
-135 -99 0
-148 -97 0
-149 -98 0
-150 -99 0
-115 -100 0
-116 -101 0
-117 -102 0
